proyfinal/src/viki/013/andrea/andrea-localstore/experimentInOfficeAgust.take6/worker_11/14bfecbd-04f7-4cbf-8670-9485b29a7cb7.als.cnf.out
Reading from standard input... Use '--help' for help.
============================[ Problem Statistics ]=============================
|                                                                             |
|  Number of variables:         87638                                         |
|  Number of clauses:          161767                                         |
|  Parse time:                   0.03 s                                       |
|                                                                             |
============================[ Search Statistics ]==============================
| Conflicts |          ORIGINAL         |          LEARNT          | Progress |
|           |    Vars  Clauses Literals |    Limit  Clauses Lit/Cl |          |
===============================================================================
|       100 |   63809   110377   275563 |    40471      100     28 | 27.190 % |
|       250 |   63809   110377   275563 |    44518      250     28 | 27.190 % |
|       475 |   63809   110377   275563 |    48970      475     51 | 27.190 % |
|       812 |   63809   110377   275563 |    53867      812     81 | 27.190 % |
|      1318 |   56605   110329   275431 |    59254     1244     71 | 35.410 % |
|      2077 |   56577    88160   220975 |    65179     1979     65 | 35.442 % |
|      3216 |   56355    88048   220714 |    71697     3112     62 | 35.696 % |
|      4924 |   56270    86885   217982 |    78867     4785     61 | 35.793 % |
|      7486 |   56104    86519   217072 |    86754     7334     64 | 35.982 % |
|     11330 |   56061    86070   216027 |    95429    11167     66 | 36.031 % |
|     17096 |   55962    85690   215097 |   104972    16920     70 | 36.144 % |
===============================================================================
restarts              : 91
conflicts             : 24384          (7090 /sec)
decisions             : 82073          (0.00 % random) (23864 /sec)
propagations          : 35368762       (10283988 /sec)
conflict literals     : 1691630        (46.65 % deleted)
Memory used           : 42.31 MB
CPU time              : 3.43921 s

INDETERMINATE
